set LOCATIONS := Farm1	Farm2	Farm3	Lab	Base1	Base2	Miami	NewYork;

param:		supply	demand	price	yield	stage :=
	Farm1	15000		0		0		1		1
	Farm2	9000		0		0		1		1
	Farm3	11000		0		0		1		1
	Lab			0		0		0		0.3		2
	Base1		0		0		0		1		3
	Base2		0		0		0		1		3
	Miami		0		8000	80000	1		4
	NewYork		0		7000	100000	1		4;
	
